benchmarks/INST_36x36/15/inst36x36_15_73.txt
6
1
-1	-1	-1	-1	-1	-1	-1	-1	-1	21	-1	-1	-1	-1	-1	-1	-1	-1	-1	-1	-1	-1	-1	-1	-1	-1	-1	-1	-1	-1	-1	-1	-1	-1	33	28
-1	-1	-1	-1	-1	-1	-1	-1	-1	-1	-1	-1	-1	-1	16	-1	-1	-1	-1	25	-1	31	-1	-1	-1	-1	18	-1	13	9	14	-1	-1	24	-1	-1
-1	-1	22	-1	8	19	14	-1	-1	18	-1	-1	-1	-1	-1	-1	-1	-1	-1	-1	9	-1	-1	-1	-1	-1	-1	-1	-1	4	21	-1	34	-1	-1	13
-1	-1	-1	-1	-1	-1	-1	33	-1	-1	-1	-1	-1	-1	-1	-1	30	-1	-1	-1	-1	24	-1	-1	-1	-1	-1	8	12	-1	-1	-1	-1	-1	-1	1
-1	-1	-1	-1	-1	-1	-1	-1	-1	8	-1	-1	21	-1	-1	22	-1	-1	-1	-1	-1	-1	-1	-1	-1	-1	-1	36	-1	-1	-1	-1	-1	-1	-1	-1
-1	-1	-1	-1	-1	30	-1	-1	22	-1	-1	-1	-1	-1	-1	-1	-1	-1	15	-1	-1	-1	-1	-1	-1	-1	-1	-1	-1	-1	-1	-1	-1	-1	-1	-1
-1	-1	25	-1	-1	-1	-1	-1	-1	-1	-1	-1	33	-1	-1	-1	-1	-1	-1	17	-1	-1	-1	-1	-1	32	-1	-1	-1	-1	-1	-1	-1	-1	-1	-1
-1	-1	-1	-1	-1	-1	1	-1	11	-1	-1	-1	-1	-1	-1	-1	-1	-1	-1	6	24	-1	25	-1	-1	27	-1	-1	-1	-1	-1	-1	-1	-1	-1	-1
-1	30	-1	-1	-1	-1	-1	-1	-1	-1	-1	-1	25	-1	-1	-1	-1	-1	-1	-1	-1	-1	18	-1	-1	-1	-1	-1	16	-1	-1	-1	-1	-1	-1	-1
-1	-1	-1	-1	-1	-1	-1	-1	-1	-1	-1	-1	-1	-1	-1	-1	-1	-1	-1	22	-1	-1	-1	-1	-1	-1	-1	-1	-1	30	-1	-1	-1	12	-1	-1
-1	-1	-1	-1	-1	-1	-1	-1	27	-1	-1	-1	-1	26	-1	12	-1	-1	-1	-1	-1	7	-1	1	-1	-1	29	-1	-1	-1	9	-1	-1	-1	34	-1
-1	-1	-1	-1	-1	26	-1	-1	6	-1	4	-1	-1	-1	-1	-1	-1	-1	-1	-1	-1	30	-1	5	-1	-1	-1	-1	-1	-1	-1	-1	22	1	-1	-1
-1	-1	-1	10	-1	3	15	-1	-1	26	-1	-1	-1	22	-1	-1	21	-1	-1	9	-1	-1	-1	-1	-1	-1	-1	-1	-1	-1	-1	-1	-1	-1	-1	-1
-1	-1	-1	-1	-1	-1	-1	-1	-1	-1	22	-1	13	-1	-1	-1	-1	-1	-1	-1	-1	-1	-1	-1	-1	-1	-1	-1	-1	-1	-1	16	-1	-1	-1	-1
-1	2	33	-1	-1	-1	-1	1	-1	-1	-1	25	-1	-1	14	-1	-1	-1	-1	-1	-1	-1	-1	-1	-1	9	-1	-1	-1	-1	-1	-1	-1	8	-1	-1
26	-1	-1	-1	-1	-1	-1	-1	-1	-1	-1	-1	-1	-1	-1	-1	-1	-1	-1	-1	-1	-1	-1	-1	-1	4	-1	-1	-1	-1	-1	-1	-1	-1	-1	-1
17	-1	-1	-1	-1	-1	-1	-1	-1	31	-1	-1	-1	-1	-1	35	-1	18	13	-1	-1	36	-1	3	-1	-1	-1	-1	26	-1	-1	-1	-1	-1	-1	-1
-1	4	-1	-1	-1	-1	-1	-1	-1	-1	-1	-1	31	-1	-1	-1	-1	28	-1	-1	-1	25	-1	34	-1	-1	-1	-1	-1	-1	-1	-1	-1	-1	-1	-1
-1	24	-1	-1	-1	13	-1	-1	-1	-1	-1	-1	-1	-1	-1	-1	-1	-1	-1	-1	-1	-1	22	-1	-1	-1	-1	-1	34	-1	-1	-1	-1	-1	-1	-1
-1	-1	31	-1	-1	14	-1	-1	-1	-1	-1	7	-1	-1	-1	-1	-1	-1	-1	27	-1	-1	-1	-1	-1	-1	22	-1	-1	-1	-1	-1	-1	-1	23	-1
-1	-1	-1	-1	-1	-1	-1	-1	-1	22	-1	-1	-1	-1	-1	-1	-1	-1	25	-1	-1	-1	-1	-1	28	-1	-1	-1	-1	-1	-1	-1	-1	-1	-1	-1
-1	-1	-1	-1	-1	18	-1	25	-1	-1	-1	-1	16	31	-1	-1	7	11	34	-1	-1	-1	-1	-1	-1	-1	-1	-1	9	-1	-1	-1	19	-1	26	-1
-1	16	-1	-1	-1	-1	-1	-1	-1	-1	-1	-1	-1	-1	-1	25	-1	-1	9	21	-1	-1	-1	-1	15	-1	2	-1	-1	-1	20	-1	-1	-1	-1	-1
-1	-1	28	-1	-1	-1	-1	-1	-1	34	-1	-1	-1	-1	-1	-1	3	-1	-1	-1	-1	32	-1	-1	-1	-1	-1	-1	-1	-1	-1	-1	-1	27	15	-1
-1	-1	-1	-1	-1	-1	-1	-1	-1	-1	-1	-1	-1	-1	-1	-1	-1	-1	-1	16	-1	-1	-1	-1	21	-1	-1	-1	-1	-1	-1	-1	23	-1	-1	-1
-1	-1	-1	32	-1	-1	-1	-1	-1	-1	-1	-1	-1	15	-1	-1	-1	-1	-1	-1	5	-1	-1	-1	16	-1	-1	-1	-1	-1	-1	-1	-1	-1	-1	-1
-1	-1	-1	-1	-1	-1	-1	-1	-1	20	-1	-1	-1	-1	-1	-1	25	-1	-1	-1	-1	22	-1	-1	-1	-1	-1	-1	-1	-1	-1	-1	-1	14	-1	-1
16	-1	-1	-1	-1	-1	18	2	-1	-1	-1	-1	-1	-1	-1	-1	-1	-1	-1	-1	-1	-1	-1	-1	-1	12	-1	-1	-1	-1	-1	-1	-1	-1	28	-1
-1	-1	-1	20	-1	-1	29	-1	34	-1	-1	-1	-1	-1	-1	-1	-1	19	-1	31	-1	-1	30	-1	-1	-1	-1	25	-1	-1	-1	-1	-1	-1	-1	-1
-1	-1	-1	-1	30	-1	-1	-1	-1	-1	-1	-1	-1	-1	-1	-1	-1	-1	-1	-1	-1	2	-1	-1	-1	-1	-1	-1	-1	-1	-1	-1	-1	-1	-1	24
20	-1	1	-1	-1	-1	-1	-1	-1	-1	-1	-1	9	-1	-1	18	-1	3	-1	-1	-1	-1	-1	-1	-1	-1	-1	-1	-1	25	-1	-1	-1	15	31	-1
-1	18	24	-1	-1	-1	-1	-1	-1	-1	-1	22	-1	-1	-1	-1	-1	27	-1	-1	31	-1	-1	-1	-1	17	-1	-1	-1	-1	-1	-1	-1	-1	-1	-1
-1	22	-1	-1	16	-1	-1	-1	-1	-1	-1	-1	-1	-1	26	-1	-1	25	-1	-1	-1	-1	-1	-1	29	-1	-1	-1	-1	-1	-1	-1	-1	-1	-1	-1
-1	-1	-1	-1	-1	-1	-1	-1	-1	29	-1	-1	-1	-1	-1	-1	-1	-1	-1	-1	-1	-1	-1	-1	-1	-1	-1	-1	-1	-1	-1	-1	-1	-1	-1	-1
2	-1	-1	-1	-1	-1	-1	24	-1	15	-1	-1	-1	-1	13	-1	-1	-1	-1	-1	25	-1	-1	-1	-1	-1	3	-1	-1	-1	-1	10	-1	-1	-1	6
-1	-1	-1	-1	-1	-1	-1	-1	-1	-1	25	18	-1	-1	-1	-1	-1	31	-1	2	36	-1	-1	-1	-1	-1	-1	-1	-1	-1	-1	-1	-1	-1	-1	3
